N = 50;
lengths = [295, 295, 295, 295, 295, 295, 295, 295, 295, 295, 295, 295, 295, 295, 295, 295, 295, 295, 295, 295, 295, 295, 295, 295, 295, 295, 295, 295, 295, 295, 295, 295, 295, 295, 295, 295, 295, 295, 295, 295, 295, 295, 295, 295, 295, 295, 295, 295, 295, 295];
widths = [295, 295, 295, 295, 295, 295, 295, 295, 295, 295, 295, 295, 295, 295, 295, 295, 295, 295, 295, 295, 295, 295, 295, 295, 295, 295, 295, 295, 295, 295, 295, 295, 295, 295, 295, 295, 295, 295, 295, 295, 295, 295, 295, 295, 295, 295, 295, 295, 295, 295];
heights = [75, 70, 70, 75, 70, 75, 75, 75, 55, 75, 60, 75, 69, 80, 50, 70, 70, 70, 40, 55, 60, 85, 75, 80, 70, 70, 75, 70, 70, 45, 100, 55, 60, 100, 60, 60, 75, 145, 75, 70, 60, 70, 60, 75, 48, 75, 68, 35, 70, 75];
reds = [197, 132, 155, 111, 71, 75, 37, 51, 161, 226, 7, 0, 124, 97, 72, 41, 55, 63, 147, 197, 148, 95, 243, 66, 41, 120, 140, 182, 59, 97, 138, 190, 218, 74, 37, 96, 46, 18, 94, 107, 217, 35, 154, 92, 20, 102, 240, 29, 175, 226];
greens = [215, 248, 244, 71, 48, 158, 169, 181, 104, 133, 47, 252, 166, 113, 229, 163, 154, 170, 227, 162, 94, 16, 35, 76, 200, 110, 230, 42, 249, 124, 59, 87, 31, 112, 13, 61, 189, 11, 63, 31, 51, 113, 179, 31, 51, 133, 86, 81, 128, 89];
blues = [20, 207, 183, 144, 128, 50, 241, 222, 244, 31, 204, 170, 32, 122, 46, 250, 149, 104, 46, 123, 96, 133, 45, 19, 141, 214, 252, 166, 171, 8, 112, 170, 51, 23, 63, 200, 59, 99, 245, 11, 133, 36, 223, 239, 200, 183, 104, 82, 60, 6];
